
%FILE DATA:	Soccer Computational Problem for MiniZinc Models	%
%AUTHOR:	Jack Wall	%
%CONTACT:  	116397063@umail.ucc.ie			%
%LAST UPDATE:	03/12/2020, 11:03:48						%
%DESCRIPTION: 	140 games played with 42 games left				%


n=14; %number of teams

%Games to play
games=[|1,9|1,14|6,14|11,10|12,11|3,8|2,10|14,6|11,12|12,10|2,6|10,5|13,2|13,8|12,5|5,7|11,8|8,3|13,12|10,1|14,9|11,9|4,6|11,7|13,11|7,2|14,2|1,13|14,1|5,8|3,13|6,12|12,13|3,5|7,3|2,5|13,14|7,5|5,10|14,10|3,1|6,8|];

%Initial points
iPoints=[27,31,32,31,25,24,28,24,40,22,23,35,22,20];

%POSITION CONSTRAINTS
% [|teamID, operator, position|...]
% operators index:
%  1 for =  operator
%  2 for >  operator
%  3 for >= operator
%  4 for <  operator
%  5 for <= operator
positionConstraints=[|12,1,1|9,4,3|3,5,3|2,5,4|7,5,5|];